cost: 717.50
Route 1:           0    6   44   21   20    7   36    0
Route 2:           0   11   28   35   46   40   16    0
Route 3:           0   23    2   30   25    0
Route 4:           0   26   13   10    3   43   39   38    8    0
Route 5:           0   29   18    0
Route 6:           0   27   17   31   24    0
Route 7:           0   45   32   22    1   33   14   15    0
Route 8:           0   48   49   41   12    4   42    0
Route 9:           0   47   34   19   50   37    9    5    0
